80 5
228
1140
1824
1368
1596
2052
2052
2280
2280
1368
228
456
1824
1596
912
1596
1368
2052
2052
2280
1824
2280
684
912
684
1368
1368
2052
1140
912
1140
1824
1140
1140
912
1368
2280
2280
2052
1596
456
1596
1596
1596
2280
2280
1824
912
228
2052
684
2052
1824
2052
1140
2280
1140
1368
1140
1596
1140
684
228
912
228
1140
684
2280
228
2052
2052
456
684
2280
2280
2052
456
1824
2052
2280
25588
29386
18031
16446
26145
